8
0 493 630 508 537 709 408 993
493 0 912 847 45 875 99 798
630 912 0 144 952 206 882 817
508 847 144 0 890 321 804 885
537 45 952 890 0 910 136 804
709 875 206 321 910 0 868 625
408 99 882 804 136 868 0 861
993 798 817 885 804 625 861 0
